NAME: tsp_334
COMMENT: Random TSP instance
TYPE: TSP
DIMENSION: 50
EDGE_WEIGHT_TYPE: EUC_2D
NODE_COORD_SECTION
1 66 269
2 147 517
3 824 435
4 955 515
5 673 660
6 25 820
7 957 999
8 271 329
9 903 30
10 880 24
11 778 946
12 60 345
13 958 916
14 925 35
15 87 505
16 130 458
17 459 250
18 611 520
19 291 841
20 600 123
21 437 685
22 507 475
23 847 108
24 578 341
25 739 870
26 287 380
27 761 665
28 479 887
29 836 208
30 45 390
31 88 274
32 940 464
33 504 335
34 918 423
35 218 245
36 545 710
37 873 805
38 505 983
39 332 721
40 515 24
41 112 99
42 235 524
43 822 734
44 172 618
45 74 514
46 959 756
47 807 470
48 1000 195
49 652 943
50 483 37
